p cnf 807 2135
c ind 785 791 789 793 786 803 775 787 804 750 0
c ind 790 783 797 746 747 778 781 767 805 768 0
c ind 782 784 779 788 798 801 776 795 800 780 0
c ind 740 749 758 772 735 739 755 777 796 737 0
c ind 736 763 792 794 738 769 771 774 762 773 0
c ind 802 754 799 757 741 766 751 748 760 764 0
c ind 745 759 765 743 753 761 756 742 770 744 0
c ind 752 1 0
c ret 499 628 629 630 631 632 633 634 500 635 0
c ret 636 637 638 540 639 640 541 641 642 643 0
c ret 644 645 501 646 542 647 648 649 650 651 0
c ret 652 502 653 654 655 656 543 657 658 544 0
c ret 659 660 661 662 663 664 665 503 666 667 0
c ret 668 669 670 671 672 673 674 504 505 545 0
c ret 506 675 676 677 678 546 547 679 680 681 0
c ret 682 683 684 685 686 687 507 548 688 689 0
c ret 690 691 692 693 508 694 695 696 697 698 0
c ret 699 491 509 700 701 702 510 703 704 549 0
c ret 705 550 551 706 707 708 709 710 711 712 0
c ret 713 714 715 511 716 717 718 719 720 721 0
c ret 722 552 723 724 725 726 512 727 728 729 0
c ret 730 731 732 733 734 513 553 514 554 555 0
c ret 556 515 492 516 517 557 558 559 560 518 0
c ret 561 562 563 519 564 565 520 566 567 521 0
c ret 568 569 570 522 571 493 523 572 573 574 0
c ret 575 524 576 577 578 579 525 580 526 527 0
c ret 581 528 494 529 582 583 530 584 531 585 0
c ret 532 586 533 587 588 495 589 590 591 592 0
c ret 593 594 595 596 597 496 598 599 600 601 0
c ret 602 603 604 605 606 607 608 534 535 609 0
c ret 497 610 536 611 537 612 613 614 615 616 0
c ret 617 618 498 619 538 620 539 621 622 623 0
c ret 624 625 626 627 0
2 3 -231 -684 0
2 3 -205 -231 0
-2 231 0
-2 -3 0
-2 205 684 0
3 192 -494 0
3 4 165 192 0
-3 -192 0
-3 -4 494 0
-3 -165 494 0
4 -113 671 0
4 5 671 672 0
-4 -671 0
-4 113 -672 0
-4 -5 113 0
5 6 73 0
5 6 673 0
5 6 -614 0
-5 -6 0
-5 -73 614 -673 0
6 -72 673 674 0
6 -7 673 -674 0
-6 -673 0
-6 7 -674 0
-6 72 674 0
7 -8 -503 585 589 0
7 -8 503 -585 589 0
-7 8 0
-7 503 585 0
-7 -589 0
-7 -503 -585 0
8 -9 38 -41 -63 0
-8 63 0
-8 9 0
-8 41 0
-8 -38 0
9 11 21 -34 0
9 -10 21 -34 0
-9 34 0
-9 -21 0
-9 10 -11 0
10 504 523 0
-10 -504 0
-10 -523 0
11 14 -504 0
11 -12 14 0
-11 -14 0
-11 12 504 0
12 -522 -543 0
12 -13 -543 0
-12 543 0
-12 13 522 0
13 -515 -516 -544 0
-13 515 0
-13 516 0
-13 544 0
12 14 15 -504 0
14 -15 -504 572 0
-14 504 0
-14 -15 -572 0
-12 -14 15 0
15 16 523 0
-15 -523 0
-15 -16 0
16 17 -573 0
-16 573 0
-16 -17 0
17 18 576 0
17 18 577 0
-17 -18 0
-17 -576 -577 0
18 19 -20 523 573 0
-18 20 0
-18 -19 0
-18 -523 0
-18 -573 0
19 524 533 -580 0
-19 580 0
-19 -533 0
-19 -524 0
20 -574 576 577 0
-20 574 0
-20 -577 0
-20 -576 0
21 22 504 0
21 -27 504 0
-21 -504 0
-21 -22 27 0
22 23 24 0
22 23 514 0
-22 -23 0
-22 -24 -514 0
23 -549 550 -551 0
-23 549 0
-23 -550 0
-23 551 0
24 25 26 0
24 25 -536 -537 0
-24 -25 0
-24 -26 536 0
-24 -26 537 0
25 -512 -534 0
25 -512 -535 0
-25 512 0
-25 534 535 0
26 513 -534 -535 0
-26 535 0
-26 534 0
-26 -513 0
27 28 -32 0
-27 -28 0
-27 32 0
28 -29 558 0
-28 -558 0
-28 29 0
29 -31 530 0
29 -31 -541 0
29 30 -31 0
-29 31 0
-29 -30 -530 541 0
30 560 562 563 -564 0
-30 564 0
-30 -563 0
-30 -560 0
-30 -562 0
31 562 563 0
31 541 560 0
31 560 563 0
31 541 562 0
-31 -560 -562 0
-31 -541 -563 0
32 -33 565 0
-32 -565 0
-32 33 0
33 -541 560 0
33 541 559 0
-33 541 -559 0
-33 -541 -560 0
34 35 -586 0
34 35 -37 0
-34 -35 0
-34 37 586 0
35 36 566 0
-35 -566 0
-35 -36 0
36 540 541 0
36 528 -541 0
-36 -540 541 0
-36 -528 -541 0
37 504 519 0
-37 -504 0
-37 -519 0
38 40 -504 0
14 38 -504 0
38 39 -504 0
-38 504 0
-14 -38 -39 -40 0
27 39 -566 0
27 -36 39 0
-27 -39 0
36 -39 566 0
-22 40 -569 0
-22 40 519 0
22 -40 0
-40 -519 569 0
41 -42 56 -57 -61 0
-41 61 0
-41 42 0
-41 57 0
-41 -56 0
42 -43 54 519 0
42 -43 -52 54 0
-42 43 0
-42 -54 0
-42 52 -519 0
43 -44 -47 50 -51 0
-43 51 0
-43 44 0
-43 47 0
-43 -50 0
44 -45 -554 0
44 -45 519 545 0
-44 45 0
-44 -545 554 0
-44 -519 554 0
45 46 523 0
45 46 -515 0
45 46 -526 0
-45 -46 0
-45 515 -523 526 0
46 515 524 0
46 -515 516 0
-46 -515 -516 0
-46 515 -524 0
47 48 -49 519 0
47 48 -49 -545 0
-47 49 0
-47 -48 0
-47 -519 545 0
48 524 533 0
-48 -524 0
-48 -533 0
49 -505 531 0
49 -530 -553 0
49 -505 -530 0
49 531 -553 0
-49 530 -531 0
-49 505 553 0
50 515 522 -523 0
-50 523 0
-50 -522 0
-50 -515 0
51 -532 -552 553 0
-51 532 0
-51 552 0
-51 -553 0
52 53 -518 -538 0
52 53 517 -538 0
-52 538 0
-52 -53 0
-52 -517 518 0
53 520 -521 0
53 520 539 0
-53 -520 0
-53 521 -539 0
54 -55 -507 0
54 -507 509 -511 0
-54 507 0
-54 55 -509 0
-54 55 511 0
55 -506 508 -509 510 0
-55 509 0
-55 -510 0
-55 506 0
-55 -508 0
-12 56 -523 0
-56 523 0
12 -56 0
57 -58 542 0
-36 57 -58 0
57 -58 -527 0
-57 58 0
36 -57 527 -542 0
58 60 522 0
58 59 60 0
58 60 515 0
-58 -60 0
-58 -59 -515 -522 0
59 -523 -524 525 0
-59 523 0
-59 524 0
-59 -525 0
60 527 -532 0
60 527 -528 -529 0
-60 -527 0
-60 528 532 0
-60 529 532 0
23 61 514 0
23 24 61 62 0
-23 -61 0
-61 -62 -514 0
-24 -61 -514 0
62 512 -513 0
-62 -512 0
-62 513 0
-39 63 -64 530 0
-39 63 -64 71 0
-63 64 0
39 -63 0
-63 -71 -530 0
64 -67 -566 0
64 -65 -67 532 0
-64 67 0
-64 -532 566 0
-64 65 566 0
65 -66 567 0
-65 -567 0
-65 66 0
66 561 562 0
66 -541 562 0
66 529 541 -562 0
-66 -529 -562 0
-66 -541 -562 0
-66 541 -561 562 0
-22 56 67 -68 0
22 -67 0
-56 -67 0
-67 68 0
32 68 69 -70 0
68 69 -70 530 0
-68 70 0
-68 -69 0
-32 -68 -530 0
69 -519 569 0
69 -569 586 0
69 -504 586 0
-69 519 -586 0
-69 -569 -586 0
-69 504 519 569 0
36 70 -557 -584 585 0
-70 584 0
-36 -70 0
-70 557 0
-70 -585 0
-28 -33 71 0
-28 -66 71 0
28 -71 0
33 66 -71 0
-41 72 557 0
-72 -557 0
41 -72 0
-8 73 -74 92 -106 0
-73 106 0
8 -73 0
-73 74 0
-73 -92 0
74 75 79 83 -89 0
-74 89 0
-74 -83 0
-74 -75 0
-74 -79 0
75 -76 -502 0
10 75 -76 0
-75 76 0
-10 -75 502 0
-11 76 502 0
76 -77 -502 0
-76 77 -502 0
11 -76 502 0
-11 77 78 0
77 -78 -597 0
11 -77 78 0
-77 -78 597 0
-10 16 78 0
10 -78 0
-16 -78 0
-23 79 -80 0
79 -80 -81 -514 0
-79 80 0
23 -79 81 0
23 -79 514 0
80 502 504 0
-80 -502 0
-80 -504 0
81 -502 605 0
81 -82 502 0
-81 -502 -605 0
-81 82 502 0
82 -504 581 0
-24 82 504 0
-82 -504 -581 0
24 -82 504 0
83 -84 -86 0
-83 84 0
-83 86 0
84 -85 591 0
84 583 591 0
-84 -591 0
-84 85 -583 0
-33 85 504 0
-85 -504 0
33 -85 0
86 87 502 0
-86 -502 0
-86 -87 0
-85 87 88 590 0
-85 87 583 590 0
85 -87 0
-87 -590 0
-87 -88 -583 0
29 88 504 0
-88 -504 0
-29 -88 0
89 -90 -611 0
89 -90 -91 0
-89 90 0
-89 91 611 0
90 -592 0
-36 90 -583 0
-36 90 593 0
36 -90 592 0
-90 583 592 -593 0
-37 91 502 0
-91 -502 0
37 -91 0
-77 92 -93 0
92 99 -502 0
-77 92 -502 0
92 -93 99 0
77 -92 -99 0
-92 93 502 0
93 94 98 0
11 93 94 -97 0
-93 -94 0
-11 -93 -98 0
-93 97 -98 0
94 504 598 604 0
94 95 -504 598 -604 0
-94 -504 604 0
-94 -95 -604 0
-94 -598 0
-94 504 -604 0
95 -96 -504 -601 0
95 -96 504 -602 0
-95 96 0
-95 -504 601 0
-95 504 602 0
96 551 -599 0
96 -599 -600 0
-96 599 0
-96 -551 600 0
-82 -87 97 603 0
-82 97 592 603 0
82 -97 0
-97 -603 0
87 -97 -592 0
-95 98 -504 -598 0
-98 504 0
-98 598 0
95 -98 0
-90 99 -100 -103 -105 0
-99 105 0
90 -99 0
-99 103 0
-99 100 0
-87 100 101 0
84 100 101 0
-100 -101 0
-84 87 -100 0
101 102 592 0
-101 -592 0
-101 -102 0
-36 102 -583 0
102 583 593 0
-102 583 -593 0
36 -102 -583 0
103 104 -504 0
-22 103 104 0
-103 -104 0
22 -103 504 0
37 104 594 0
-104 -594 0
-37 -104 0
23 104 105 -502 504 0
-104 -105 0
-23 -105 0
-105 502 0
-105 -504 0
-9 79 -100 106 -107 0
-106 107 0
9 -106 0
100 -106 0
-79 -106 0
-32 -103 107 -108 0
87 -103 107 -108 0
-107 108 0
103 -107 0
32 -87 -107 0
102 104 108 -109 -111 0
-102 -108 0
-108 111 0
-108 109 0
-104 -108 0
109 -110 -611 0
109 -110 502 594 0
-109 110 0
-109 -594 611 0
-109 -502 611 0
110 503 -585 0
110 -503 585 0
-110 -503 -585 0
-110 503 585 0
-36 111 -112 0
111 -112 -592 0
-111 112 0
36 -111 592 0
112 -501 -589 -609 610 0
-112 609 0
-112 -610 0
-112 501 0
-112 589 0
113 -114 -154 637 -672 0
-113 -637 0
-113 154 0
-113 114 0
-113 672 0
-73 114 115 144 -147 0
-114 147 0
-114 -144 0
73 -114 0
-114 -115 0
115 -116 129 0
115 133 -500 0
115 129 -500 0
115 -116 133 0
-115 116 500 0
-115 -129 -133 0
116 117 128 0
76 116 117 -121 0
-116 -117 0
-76 -116 -128 0
-116 121 -128 0
-80 117 624 627 0
80 117 118 624 -627 0
-80 -117 -627 0
80 -117 -118 0
-117 -624 0
80 -117 627 0
-96 118 -119 0
96 -118 0
-118 119 0
119 -502 -625 0
119 -120 502 0
-119 120 502 0
-119 -502 625 0
120 -504 -601 0
120 504 -602 0
-120 504 602 0
-120 -504 601 0
-81 121 -122 626 0
-81 121 617 626 0
81 -121 0
-121 -626 0
-121 122 -617 0
122 125 608 615 0
122 -123 125 615 0
-122 -125 0
-122 -615 0
-122 123 -608 0
123 -502 608 0
123 -124 502 0
-123 -502 -608 0
-123 124 502 0
88 124 504 0
88 124 583 0
-88 -124 0
-124 -504 -583 0
125 126 127 0
-125 -126 0
-125 -127 0
126 583 607 0
-126 -583 0
-126 -607 0
-85 127 502 0
-126 127 -502 0
126 -127 -502 0
85 -127 502 0
80 -118 128 -624 0
-128 624 0
-80 -128 0
118 -128 0
76 129 130 0
129 -130 623 0
-76 -129 130 0
-129 -130 -623 0
130 -131 -132 0
-80 130 -131 573 0
-130 131 0
-130 132 -573 0
80 -130 132 0
-10 131 502 0
-131 -502 0
10 -131 0
-17 132 573 0
-17 132 523 0
17 -132 0
-132 -523 -573 0
133 -134 -140 -141 -143 0
-133 143 0
-133 134 0
-133 141 0
-133 140 0
134 -135 139 0
-134 135 0
-134 -139 0
135 136 138 0
-122 135 136 0
-135 -136 0
122 -135 -138 0
136 137 617 0
-136 -617 0
-136 -137 0
-36 137 -608 0
137 608 619 0
-137 608 -619 0
36 -137 -608 0
-127 138 616 0
138 608 616 0
-138 -616 0
127 -138 -608 0
91 139 620 0
-139 -620 0
-91 -139 0
79 139 140 0
-79 -140 0
-139 -140 0
141 -617 0
-36 -137 141 0
-137 141 -142 0
137 -141 617 0
36 -141 142 617 0
-126 142 618 0
-142 -618 0
126 -142 0
23 -80 143 -500 0
-143 500 0
-23 -143 0
80 -143 0
144 145 146 0
10 144 145 0
-144 -145 0
-10 -144 -146 0
-129 145 -500 0
76 145 500 0
-76 -145 500 0
129 -145 -500 0
146 500 502 0
-146 -500 0
-146 -502 0
147 148 -151 -634 0
147 148 -151 -153 0
-147 151 0
-147 -148 0
-147 153 634 0
-23 148 -149 0
148 -149 150 -514 0
-148 149 0
23 -148 -150 0
23 -148 514 0
-146 149 504 0
-149 -504 0
146 -149 0
150 -500 -628 0
81 150 500 0
-150 -500 628 0
-81 -150 500 0
-122 -141 151 0
-141 151 152 0
141 -151 0
122 -151 -152 0
-138 152 500 0
-152 -500 0
138 -152 0
-37 -146 153 0
37 -153 0
146 -153 0
-74 144 154 -155 0
74 -154 0
-144 -154 0
-154 155 0
75 -134 148 155 -156 0
134 -155 0
-148 -155 0
-75 -155 0
-155 156 0
-135 -140 -151 156 -157 0
-156 157 0
135 -156 0
151 -156 0
140 -156 0
157 158 -160 -617 0
-102 157 158 -160 0
-157 160 0
-157 -158 0
102 -157 617 0
-122 158 159 0
122 -158 0
-158 -159 0
-84 159 502 0
-159 -502 0
84 -159 0
139 160 161 -162 0
160 161 -162 -500 0
-160 162 0
-160 -161 0
-139 -160 500 0
36 142 161 617 0
-161 -617 0
-142 -161 0
-36 -161 0
137 162 -164 -634 0
137 162 -163 -164 0
-162 164 0
-137 -162 0
-162 163 634 0
163 500 620 0
-163 -500 0
-163 -620 0
164 -499 -614 -632 633 0
-164 632 0
-164 -633 0
-164 499 0
-164 614 0
165 -166 -181 653 -671 0
-165 -653 0
-165 181 0
-165 166 0
-165 671 0
166 -167 -179 180 649 0
-166 -649 0
-166 -180 0
-166 179 0
-166 167 0
-153 167 -168 0
167 -168 -650 0
-167 168 0
153 -167 650 0
144 148 168 -169 0
-168 169 0
-148 -168 0
-144 -168 0
169 -173 176 0
169 170 176 0
-169 -176 0
-169 -170 173 0
170 -171 639 0
170 631 639 0
-170 -639 0
-170 171 -631 0
-127 171 500 0
171 -172 -500 0
-171 172 -500 0
127 -171 500 0
172 608 630 0
-172 -608 0
-172 -630 0
173 -174 -175 0
173 -175 631 0
-173 175 0
-173 174 -631 0
174 -500 631 0
-123 174 500 0
-174 -500 -631 0
123 -174 500 0
-172 175 638 0
-127 175 500 638 0
-175 -638 0
172 -175 -500 0
127 172 -175 0
176 177 640 0
36 176 178 640 0
-176 -640 0
-36 -176 -177 0
-176 -177 -178 0
-36 177 -631 0
177 631 642 0
-177 631 -642 0
36 -177 -631 0
-172 178 641 0
-178 -641 0
172 -178 0
-153 -168 179 0
-168 179 -643 0
168 -179 0
153 -179 643 0
180 -643 650 0
-180 643 0
-180 -650 0
-179 181 182 -183 0
-179 181 -183 -190 0
179 -181 0
-181 183 0
-181 -182 190 0
-96 -119 182 500 0
-96 182 -500 -646 0
96 -182 0
-182 -500 646 0
119 -182 500 0
-114 -154 -169 183 -184 0
-183 184 0
114 -183 0
169 -183 0
154 -183 0
173 184 185 -186 0
-152 184 185 -186 0
-184 186 0
-184 -185 0
152 -173 -184 0
182 185 -498 0
-185 498 0
-182 -185 0
177 186 -187 -640 0
-137 177 186 -187 0
-186 187 0
-177 -186 0
137 -186 640 0
187 188 -189 -497 649 0
187 188 -189 497 -649 0
-187 189 0
-187 497 649 0
-187 -188 0
-187 -497 -649 0
-80 188 500 0
-188 -500 0
80 -188 0
189 -637 -643 -648 0
-189 637 0
-189 643 0
-189 648 0
190 191 -498 0
145 190 -498 0
-190 498 0
-145 -190 -191 0
150 -173 191 647 0
150 191 640 647 0
-150 -191 0
-191 -647 0
173 -191 -640 0
-166 -181 192 193 -197 0
-192 197 0
166 -192 0
181 -192 0
-192 -193 0
-182 193 496 0
-145 -182 193 -194 0
182 -193 0
-193 194 -496 0
145 -193 -496 0
150 194 -195 664 0
150 194 658 664 0
-150 -194 0
-194 -664 0
-194 195 -658 0
195 196 654 656 0
-174 195 196 654 0
-195 -654 0
-195 -196 0
174 -195 -656 0
171 196 -631 0
171 196 -655 0
-171 -196 0
-196 631 655 0
148 -167 197 -198 -203 0
-148 -197 0
-197 203 0
-197 198 0
167 -197 0
198 199 -200 496 0
-182 198 199 -200 0
-198 200 0
-198 -199 0
182 -198 -496 0
-36 199 -656 0
199 656 660 0
-199 656 -660 0
36 -199 -656 0
200 -201 -202 -494 -667 0
-200 202 0
-200 494 0
-200 201 0
-200 667 0
201 -653 -658 -661 -665 0
-201 665 0
-201 653 0
-201 661 0
-201 658 0
149 202 -495 666 670 0
-149 -202 0
-202 -670 0
-202 495 0
-202 -666 0
-170 -195 203 0
195 203 204 0
170 -195 -203 0
195 -203 -204 0
-171 204 657 0
204 656 657 0
-204 -657 0
171 -204 -656 0
205 -206 -213 -685 0
205 -206 -212 -685 0
-205 685 0
-205 206 0
-205 212 213 0
206 207 523 0
-206 -523 0
-206 -207 0
188 207 208 0
-188 -207 0
-207 -208 0
208 -209 -210 0
-208 209 0
-208 210 0
209 494 671 672 0
-209 -494 0
-209 -672 0
-209 -671 0
-80 210 211 0
210 211 673 0
-210 -211 0
80 -210 -673 0
211 -504 -674 0
-211 504 0
-211 674 0
212 -493 693 0
-206 212 491 493 0
212 -491 693 0
-212 -491 -693 0
206 -212 491 493 0
-212 -493 -693 0
213 214 230 0
-213 -214 0
-213 -230 0
214 -215 491 0
214 -225 -491 0
-214 225 -491 0
-214 215 491 0
215 -216 -493 0
215 493 688 0
-215 493 -688 0
-215 216 -493 0
216 217 688 0
216 -217 691 0
-216 -217 -691 0
-216 217 -688 0
217 -218 -223 0
217 -223 692 0
-217 223 0
-217 218 -692 0
209 218 -219 0
-209 218 -221 0
-209 218 -220 0
209 -218 219 0
-209 -218 220 221 0
80 -132 219 0
-80 219 500 573 0
-132 219 -500 0
80 132 -219 0
132 -219 -500 0
-80 -219 500 -573 0
211 220 573 673 0
-132 -211 220 673 0
-220 -673 0
211 -220 -573 0
132 -211 -220 0
221 -222 -673 0
-221 673 0
-221 222 0
-80 222 573 0
80 -132 222 0
-80 -222 -573 0
80 132 -222 0
223 690 693 0
-206 223 224 0
223 224 693 0
-206 223 690 0
-223 -224 -690 0
206 -223 -693 0
207 224 -575 0
-224 575 0
-207 -224 0
-215 225 226 0
225 -226 718 0
-225 -226 -718 0
215 -225 226 0
226 228 229 692 0
226 -227 228 229 0
-226 -229 0
-226 -228 0
-226 227 -692 0
-218 227 493 0
-227 -493 0
218 -227 0
228 -493 -693 0
206 228 -693 0
-228 693 0
-206 -228 493 0
229 -493 -690 0
-224 229 -690 0
-229 690 0
224 -229 493 0
230 491 493 689 0
-230 -491 0
-230 -689 0
-230 -493 0
231 234 -381 0
-214 231 -232 -381 0
214 231 232 -381 0
-231 381 0
214 -231 -232 -234 0
-214 -231 232 -234 0
232 -751 -772 0
232 -233 -772 0
-232 772 0
-232 233 751 0
233 -744 -745 -773 0
-233 744 0
-233 745 0
-233 773 0
234 235 263 -268 -760 0
234 -235 263 -268 760 0
-234 268 0
-234 235 760 0
-234 -263 0
-234 -235 -760 0
235 -236 260 0
235 -256 260 -491 0
-235 -260 0
-235 236 256 0
-235 236 491 0
236 237 246 710 0
-236 -710 0
-236 -246 0
-236 -237 0
237 -238 243 0
-237 238 0
-237 -243 0
238 239 -702 0
238 239 494 0
-238 -239 0
-238 -494 702 0
239 -240 494 671 0
239 494 656 -671 0
-239 -494 0
-239 -656 -671 0
-239 240 671 0
240 631 -672 0
240 -242 672 0
240 -241 672 0
-240 -631 -672 0
-240 241 242 672 0
241 583 673 -674 0
-241 674 0
-241 -673 0
-241 -583 0
242 608 -673 0
-242 -608 0
-242 673 0
-174 243 244 493 0
-209 243 244 493 0
-243 -493 0
-243 -244 0
174 209 -243 0
123 -209 244 -673 0
-209 244 -245 673 0
209 -244 0
-244 245 673 0
-123 -244 -673 0
-211 245 -583 0
29 211 245 0
-29 211 -245 0
-211 -245 583 0
246 247 -250 0
-246 -247 0
-246 250 0
-171 247 248 493 0
-209 247 248 493 0
-247 -493 0
-247 -248 0
171 209 -247 0
127 -209 248 249 0
-209 248 249 673 0
209 -248 0
-248 -249 0
-127 -248 -673 0
-33 211 249 673 0
-249 -673 0
33 -249 0
-211 -249 0
250 251 -656 0
250 251 -701 0
250 251 494 0
-250 -251 0
-250 -494 656 701 0
251 -253 494 671 0
251 -252 494 -671 0
-251 -494 0
-251 252 -671 0
-251 253 671 0
252 631 655 0
-252 -631 0
-252 -655 0
-172 253 -672 0
253 -255 672 0
253 -254 672 0
172 -253 -672 0
-253 254 255 672 0
-66 254 673 674 0
66 -254 0
-254 -674 0
-254 -673 0
-126 255 -673 0
-255 673 0
126 -255 0
256 -257 -259 0
256 -258 726 0
256 -257 726 0
256 -258 -259 0
-256 259 -726 0
-256 257 258 0
246 257 -493 0
246 -247 257 0
-246 -257 0
247 -257 493 0
238 258 725 0
-258 -725 0
-238 -258 0
-243 259 0
238 259 -493 0
-238 243 -259 0
243 -259 493 0
260 -261 -491 0
-256 260 -491 -724 0
-260 491 0
-260 261 724 0
256 -260 261 0
258 261 262 0
258 261 -726 0
-258 -261 0
-261 -262 726 0
250 262 713 0
-262 -713 0
-250 -262 0
263 -264 -267 0
263 264 267 0
-263 264 -267 0
-263 -264 267 0
264 -266 759 0
264 -266 -770 0
264 265 -266 0
-264 266 0
-264 -265 -759 770 0
265 792 -793 794 795 0
-265 793 0
-265 -795 0
-265 -792 0
-265 -794 0
266 794 795 0
266 770 792 0
266 792 795 0
266 770 794 0
-266 -792 -794 0
-266 -770 -795 0
267 -491 -726 0
259 267 491 0
-267 -491 726 0
-259 -267 491 0
268 269 -274 -277 -379 0
268 -269 274 -277 -379 0
-268 379 0
-268 269 274 0
-268 277 0
-268 -269 -274 0
269 -491 -723 0
269 -270 491 0
-269 270 491 0
-269 -491 723 0
270 -493 -699 0
270 -271 493 0
-270 271 493 0
-270 -493 699 0
-209 271 -272 0
-150 209 271 0
-209 -271 272 0
150 209 -271 0
81 272 -673 0
272 -273 673 0
-81 -272 -673 0
-272 273 673 0
-211 273 -581 0
24 211 273 0
-24 211 -273 0
-211 -273 581 0
274 275 276 0
274 275 -765 -766 0
-274 -275 0
-274 -276 765 0
-274 -276 766 0
275 -741 -763 0
275 -741 -764 0
-275 741 0
-275 763 764 0
276 742 -763 -764 0
-276 764 0
-276 763 0
-276 -742 0
277 -278 -280 -376 759 0
277 278 -280 -376 -759 0
-277 376 0
-277 278 759 0
-277 280 0
-277 -278 -759 0
278 -279 491 0
-278 -491 0
-278 279 0
238 279 711 0
-257 279 711 0
-279 -711 0
-238 257 -279 0
-262 280 -281 -352 771 0
262 280 -281 -352 -771 0
-280 352 0
262 -280 771 0
-280 281 0
-262 -280 -771 0
281 -282 -286 -291 -294 0
-281 294 0
-281 282 0
-281 291 0
-281 286 0
258 282 283 -784 0
-258 282 -283 -784 0
258 282 283 -284 0
-258 282 -283 -284 0
-258 -282 283 0
258 -282 -283 0
-282 284 784 0
283 -770 794 0
283 794 803 0
283 758 770 -794 0
-283 -758 -794 0
-283 770 794 -803 0
-283 -770 -794 0
224 284 -285 0
284 285 690 0
-224 -284 -285 0
-284 285 -690 0
285 491 493 0
-285 -491 0
-285 -493 0
286 287 -289 290 743 0
286 -287 289 -290 -743 0
286 287 289 -290 743 0
286 -287 -289 290 -743 0
-286 -287 743 0
-286 287 -743 0
-286 289 290 0
-286 -289 -290 0
287 -288 -514 0
-287 514 0
-287 288 0
207 -285 288 0
285 -288 0
-207 -288 0
-132 289 734 0
-289 -734 0
132 -289 0
290 -799 -805 0
290 799 -804 805 0
-290 804 805 0
-290 799 -805 0
-290 -799 805 0
284 291 -778 0
291 -292 784 0
284 291 -292 0
291 -778 784 0
-284 -291 -784 0
-291 292 778 0
285 292 680 0
-285 292 293 549 0
285 -292 -680 0
-285 -292 -549 0
-285 -292 -293 0
-209 210 293 0
149 209 293 0
-209 -210 -293 0
-149 209 -293 0
294 -295 -340 778 0
292 294 -295 -340 0
-294 340 0
-294 295 0
-292 -294 -778 0
295 296 -299 338 -748 0
295 -296 -299 338 748 0
-295 -338 0
-295 296 748 0
-295 299 0
-295 -296 -748 0
-285 296 -297 0
285 -296 0
-296 297 0
-209 297 -298 0
-153 209 297 0
-209 -297 298 0
153 209 -297 0
-91 298 -673 0
211 298 519 673 0
91 -298 -673 0
-298 -519 673 0
-211 -298 673 0
299 -300 -311 -320 -330 0
-299 330 0
-299 300 0
-299 320 0
-299 311 0
300 -301 -306 -307 -308 0
-300 308 0
-300 301 0
-300 307 0
-300 306 0
301 -302 -303 -304 -305 0
-301 305 0
-301 302 0
-301 304 0
-301 303 0
302 -683 -684 788 0
302 -600 -683 -684 0
-302 684 0
-302 683 0
-302 600 -788 0
303 532 580 0
303 -761 -802 0
303 532 -802 0
303 580 -761 0
-303 -532 761 0
-303 -580 802 0
304 -686 -693 -697 704 0
-304 697 0
-304 -704 0
-304 686 0
-304 693 0
305 491 -680 -685 690 0
-305 -491 0
-305 -690 0
-305 685 0
-305 680 0
306 -532 744 0
306 -745 761 0
306 744 761 0
306 -532 -745 0
-306 -744 745 0
-306 532 -761 0
307 682 712 0
307 -756 -780 0
307 712 -780 0
307 682 -756 0
-307 -712 756 0
-307 -682 780 0
308 309 310 679 782 0
308 309 310 -679 -782 0
-308 -309 0
-308 -679 782 0
-308 -310 0
-308 679 -782 0
309 712 -756 0
-309 -712 0
-309 756 0
310 580 -802 0
-310 -580 0
-310 802 0
311 312 -313 -315 -318 0
-311 -312 0
-311 318 0
-311 315 0
-311 313 0
312 744 -752 755 0
312 744 751 -752 0
-312 -744 0
-312 752 0
-312 -751 -755 0
313 314 742 0
313 314 -741 0
313 314 743 0
-313 -314 0
-313 741 -742 -743 0
314 756 -757 -758 0
-314 758 0
-314 757 0
-314 -756 0
315 316 -317 761 0
315 316 -317 -756 0
-315 317 0
-315 -316 0
-315 756 -761 0
316 759 -760 0
-316 -759 0
-316 760 0
317 -726 733 -761 -781 0
-317 781 0
-317 726 0
-317 761 0
-317 -733 0
318 319 -774 0
318 319 491 715 0
-318 -319 0
-318 -715 774 0
-318 -491 774 0
319 753 762 0
319 744 753 0
-319 -753 0
-319 -744 -762 0
320 -321 -326 -329 779 0
320 -321 -326 329 -779 0
-320 321 0
-320 -329 -779 0
-320 326 0
-320 329 779 0
36 321 322 323 324 0
-36 321 -322 323 324 0
-321 -323 0
-36 -321 322 0
-321 -324 0
36 -321 -322 0
322 769 770 0
322 757 -770 0
-322 -769 770 0
-322 -757 -770 0
323 682 -780 0
323 -778 779 -780 0
-323 780 0
-323 -682 778 0
-323 -682 -779 0
324 -325 -752 -753 754 0
-324 325 0
-324 752 0
-324 753 0
-324 -754 0
325 -744 -751 0
-325 744 0
-325 751 0
326 -327 771 0
-322 326 -327 0
326 -327 -756 0
-326 327 0
322 -326 756 -771 0
327 328 -715 -774 0
327 328 748 774 0
-327 -328 0
-327 -748 774 0
-327 715 -774 0
328 -600 788 0
-328 600 0
-328 -788 0
-285 329 681 0
-329 -681 0
285 -329 0
-230 330 331 332 -334 0
230 330 -331 332 -334 0
-330 334 0
230 -330 331 0
-330 -332 0
-230 -330 -331 0
331 -755 -790 0
-233 331 -790 0
-331 790 0
233 -331 755 0
332 -333 -736 0
332 -736 738 -740 0
-332 736 0
-332 333 -738 0
-332 333 740 0
333 -735 737 -738 739 0
-333 738 0
-333 -739 0
-333 735 0
-333 -737 0
334 335 -336 783 0
334 -335 -336 -783 0
334 -335 748 -783 0
334 335 748 783 0
-334 335 -783 0
-334 -335 783 0
-334 336 -748 0
335 491 -721 0
335 -491 -728 0
-335 -491 728 0
-335 491 721 0
336 337 -747 -767 0
336 337 746 -767 0
-336 767 0
-336 -337 0
-336 -746 747 0
337 749 -750 0
337 749 768 0
-337 -749 0
-337 750 -768 0
338 -339 -765 0
-338 765 0
-338 339 0
-288 339 536 0
-339 -536 0
288 -339 0
340 342 -348 -491 0
340 -341 342 -348 0
-340 348 0
-340 -342 0
-340 341 491 0
293 341 493 0
-341 -493 0
-293 -341 0
342 -343 -692 0
342 343 692 0
-342 -343 692 0
-342 343 -692 0
343 344 347 752 0
343 344 347 796 0
-343 -347 0
-343 -344 0
-343 -752 -796 0
344 345 -346 752 796 0
-344 346 0
-344 -345 0
-344 -752 0
-344 -796 0
345 753 762 -802 0
-345 802 0
-345 -762 0
-345 -753 0
346 -797 798 799 0
-346 797 0
-346 -799 0
-346 -798 0
347 -798 -799 0
-347 798 0
-347 799 0
348 -349 350 787 0
348 -349 -350 -787 0
-348 349 0
-348 350 -787 0
-348 -350 787 0
232 274 349 0
349 743 752 0
274 349 752 0
232 349 743 0
-232 -349 -752 0
-274 -349 -743 0
350 -491 -731 0
350 -351 491 0
-350 351 491 0
-350 -491 731 0
351 493 -695 0
351 -493 -720 0
-351 -493 720 0
-351 493 695 0
-212 352 -353 -371 752 0
212 352 -353 -371 -752 0
-352 371 0
212 -352 752 0
-352 353 0
-212 -352 -752 0
353 354 359 -789 0
353 -354 -359 -789 0
353 354 359 -365 0
353 -354 -359 -365 0
-353 -354 359 0
-353 354 -359 0
-353 365 789 0
354 -356 764 0
354 355 -356 766 0
-354 356 0
-354 -355 -764 0
-354 -764 -766 0
355 742 -776 0
-355 -742 0
-355 776 0
356 357 358 765 0
356 -357 742 765 0
-356 -765 0
-356 357 -358 0
-356 -357 -742 0
357 -743 -777 0
-357 743 0
-357 777 0
358 -766 -776 0
-358 766 0
-358 776 0
293 -339 359 360 -361 0
339 -359 0
-359 -360 0
-293 -359 0
-359 361 0
360 -535 -537 0
360 513 -535 -547 0
-360 535 0
-360 -513 537 0
-360 537 547 0
361 362 363 -364 0
361 -362 -364 513 0
-361 364 0
-361 362 -363 0
-361 -362 -513 0
362 -514 -548 0
-362 514 0
-362 548 0
363 -537 -547 0
-363 537 0
-363 547 0
364 493 536 0
-364 -493 0
-364 -536 0
285 365 682 0
-285 365 366 370 0
-285 -365 -366 0
285 -365 -682 0
-285 -365 -370 0
366 367 -732 0
-366 732 0
-366 -367 0
367 368 369 0
146 209 367 0
209 367 369 0
-209 -367 -368 0
-146 -367 -369 0
-209 -367 -369 0
368 673 674 0
-368 -673 0
-368 -674 0
369 504 673 0
369 502 504 0
-369 -504 0
-369 -502 -673 0
210 370 -551 0
149 209 370 -551 0
-370 551 0
-149 -210 -370 0
-209 -210 -370 0
371 372 -373 375 -761 0
371 372 -373 -375 761 0
-371 -372 0
-371 -375 -761 0
-371 373 0
-371 375 761 0
-365 372 -789 0
-372 789 0
365 -372 0
373 374 -765 786 0
-339 373 -374 -786 0
373 -374 -765 -786 0
-339 373 374 786 0
-373 -374 786 0
-373 374 -786 0
339 -373 765 0
-288 374 -730 0
-374 730 0
288 -374 0
-36 -238 375 0
238 375 714 0
238 -375 -714 0
36 -238 -375 0
376 -377 -378 0
376 377 378 0
-376 377 -378 0
-376 -377 378 0
377 -770 792 0
377 770 791 0
-377 770 -791 0
-377 -770 -792 0
-257 378 491 0
-258 378 -491 0
258 -378 -491 0
257 -378 491 0
379 -380 -796 0
379 380 796 0
-379 -380 796 0
-379 380 -796 0
380 -491 -692 0
227 380 -692 0
227 380 491 493 0
-380 -491 692 0
-227 -380 491 0
-380 -493 692 0
381 382 -383 0
-214 381 -383 0
-212 381 -383 0
-381 383 0
212 214 -381 -382 0
382 -684 -685 690 0
-382 684 0
-382 685 0
-382 -690 0
383 -398 -405 0
-225 383 -384 -405 0
-383 405 0
225 -383 398 0
-383 384 398 0
384 385 386 -387 -392 0
-384 -385 0
-384 392 0
-384 387 0
-384 -386 0
236 -279 385 0
-236 -385 0
279 -385 0
375 386 712 0
36 262 386 712 0
-386 -712 0
-36 -375 -386 0
-262 -375 -386 0
387 388 389 0
387 388 -493 0
-387 -388 0
-387 -389 493 0
388 683 -684 0
-388 -683 0
-388 684 0
389 390 -549 0
-293 389 390 0
-389 -390 0
293 -389 549 0
390 -680 -681 0
390 681 682 0
390 391 -681 0
-390 681 -682 0
-390 -391 680 -681 0
391 600 -679 0
-391 -600 0
-391 679 0
-341 392 393 -395 -397 0
-392 397 0
341 -392 0
-392 395 0
-392 -393 0
393 394 715 0
-393 -715 0
-393 -394 0
-297 394 493 0
-394 -493 0
297 -394 0
395 396 -683 -684 0
395 396 684 -685 0
-395 -396 0
-395 683 -684 0
-395 684 685 0
396 685 686 0
-396 -685 0
-396 -686 0
396 397 -491 -684 0
396 397 -491 693 0
-397 491 0
-396 -397 0
-397 684 -693 0
398 399 -404 491 0
398 -399 -401 491 0
-398 -491 0
-398 -399 401 0
-398 399 404 0
341 -351 399 -400 0
-399 400 0
351 -399 0
-341 -399 0
400 -600 -679 0
400 -679 682 0
-400 679 0
-400 600 -682 0
401 403 -719 0
215 401 402 -719 0
-401 719 0
-215 -401 -403 0
-401 -402 -403 0
402 683 684 697 0
-402 -683 0
-402 -697 0
-402 -684 0
270 403 712 721 0
-236 270 403 721 0
-270 -403 0
-403 -721 0
236 -403 -712 0
341 404 719 -722 0
-341 404 719 722 0
-404 -719 0
-341 -404 -722 0
341 -404 722 0
405 -406 -457 0
405 433 -440 -457 0
-405 457 0
-405 406 -433 0
-405 406 440 0
406 -407 493 0
406 409 -432 493 0
-406 -493 0
-406 407 432 0
-406 407 -409 0
293 407 694 698 0
-293 407 408 694 -698 0
293 -407 -698 0
-293 -407 698 0
-407 -694 0
-407 -408 -698 0
408 -600 -679 -695 0
408 -679 682 -695 0
-408 695 0
-408 679 0
-408 600 -682 0
271 409 410 -431 0
271 409 -415 -431 0
-271 -409 0
-409 431 0
-409 -410 415 0
410 -494 -658 0
410 -411 494 0
-410 411 494 0
-410 -494 658 0
411 -640 -671 0
411 -412 671 0
-411 640 -671 0
-411 412 671 0
412 -617 -672 0
412 -413 672 0
-412 617 -672 0
-412 413 672 0
413 -592 -673 0
413 -414 673 0
-413 592 -673 0
-413 414 673 0
414 -566 -674 0
414 -527 674 0
-414 527 674 0
-414 566 -674 0
-195 415 -494 0
415 -416 494 0
-415 416 494 0
195 -415 -494 0
-173 416 -671 0
416 -423 671 0
416 -417 671 0
173 -416 -671 0
-416 417 423 671 0
417 422 500 -672 0
417 -418 422 -672 0
-417 672 0
-417 -422 0
-417 418 -500 0
-172 418 419 0
-142 418 419 631 0
-418 -419 0
172 -418 -631 0
142 172 -418 0
419 -420 -629 0
-419 629 0
-419 420 0
-123 420 421 0
420 421 631 0
-420 -421 0
123 -420 -631 0
127 172 421 0
-127 -421 0
-172 -421 0
122 420 422 0
122 422 500 0
-122 -422 0
-420 -422 -500 0
423 -424 672 0
423 428 -430 672 0
-423 -672 0
-423 424 430 0
-423 424 -428 0
424 425 531 673 0
424 425 673 -674 0
-424 -425 0
-424 -673 0
-424 -531 674 0
425 426 -504 -674 0
71 425 426 -674 0
-425 674 0
-425 -426 0
-71 -425 504 0
-33 -65 426 -427 0
-65 -71 426 -427 0
-426 427 0
65 -426 0
33 71 -426 0
33 427 583 0
427 -504 582 583 0
-427 -583 0
-33 -427 504 0
-33 -427 -582 0
87 428 -429 -502 0
428 429 -502 -606 0
-428 502 0
-428 429 606 0
-87 -428 -429 0
124 429 -608 0
-429 608 0
-124 -429 0
-126 430 -502 -673 0
-87 430 502 -673 0
-430 673 0
126 -430 -502 0
87 -430 502 0
-402 431 696 0
431 688 696 0
-431 -696 0
402 -431 -688 0
-293 -408 432 -694 0
-432 694 0
293 -432 0
408 -432 0
415 433 434 0
-415 -433 0
-433 -434 0
204 434 -494 0
434 -435 494 0
-204 -434 -494 0
-434 435 494 0
170 435 -671 0
435 -436 671 0
-170 -435 -671 0
-435 436 671 0
152 436 -672 0
436 437 439 672 0
-152 -436 -672 0
-436 -439 672 0
-436 -437 672 0
437 -438 673 -674 0
437 530 673 674 0
-437 -673 0
-437 -530 674 0
-437 438 -674 0
-85 438 565 0
-438 -565 0
85 -438 0
-159 439 -673 0
-439 673 0
159 -439 0
-216 -410 440 -446 0
-216 440 -441 -446 0
-440 446 0
216 -440 0
410 -440 441 0
-199 441 -494 0
441 -442 494 0
-441 442 494 0
199 -441 -494 0
-177 442 -671 0
442 -443 671 0
-442 443 671 0
177 -442 -671 0
-137 443 -672 0
443 -444 672 0
-443 444 672 0
137 -443 -672 0
-102 444 -673 0
444 -445 673 0
-444 445 673 0
102 -444 -673 0
-36 445 -674 0
445 532 674 0
36 -445 -674 0
-445 -532 674 0
-36 446 -452 0
-410 446 -452 0
446 -447 -452 0
-446 452 0
36 410 -446 447 0
447 448 494 0
-252 447 448 659 0
-447 -448 0
252 -447 -494 0
-447 -494 -659 0
448 -449 494 671 0
178 448 494 -671 0
-448 -494 0
-178 -448 -671 0
-448 449 671 0
449 450 672 0
142 449 450 0
-449 -450 0
-142 -449 -672 0
450 -451 542 674 0
-65 450 -451 -674 0
-450 451 0
65 -450 -674 0
-450 -542 674 0
451 672 673 0
-451 -672 0
-451 -673 0
293 389 452 -453 -455 0
-293 -452 0
-452 455 0
-452 453 0
-389 -452 0
453 454 -683 0
453 454 684 0
-453 -454 0
-453 683 -684 0
297 454 676 0
-454 -676 0
-297 -454 0
-395 396 455 456 -493 0
395 -455 0
-455 -456 0
-455 493 0
-396 -455 0
456 684 -693 0
-456 -684 0
-456 693 0
457 -458 461 -464 0
457 -459 461 -464 0
-457 464 0
-457 -461 0
-457 458 459 0
458 -493 693 0
-206 458 493 0
-458 -493 -693 0
206 -458 493 0
-215 459 -684 0
382 459 -684 0
215 382 459 460 0
-215 -459 684 0
215 -382 -459 0
-459 -460 684 0
460 493 689 0
-460 -493 0
-460 -689 0
206 -209 461 -462 0
145 206 209 461 0
-206 -461 0
-145 209 -461 0
-209 -461 462 0
-76 462 -673 0
462 -463 673 0
-462 463 673 0
76 -462 -673 0
-12 463 674 0
-11 463 -674 0
11 -463 -674 0
12 -463 674 0
287 433 464 -465 0
-269 433 464 -465 0
-464 465 0
-433 -464 0
269 -287 -464 0
236 279 465 -467 0
-236 465 -466 -467 0
-465 467 0
236 -279 -465 0
-236 -465 466 0
434 466 493 0
-466 -493 0
-434 -466 0
441 467 -468 -475 -490 0
-441 -467 0
-467 490 0
-467 475 0
-467 468 0
-292 -387 468 470 0
-387 468 -469 470 0
387 -468 0
-468 -470 0
292 -468 469 0
329 391 469 0
-329 469 682 0
329 469 -680 0
-329 -469 -682 0
329 -391 -469 680 0
297 470 471 494 0
297 470 471 667 0
-470 -471 0
-297 -470 0
-470 -494 -667 0
471 494 -650 -671 0
471 -472 494 671 0
-471 -494 0
-471 472 671 0
-471 650 -671 0
472 -634 -672 0
472 473 474 672 0
-472 634 -672 0
-472 -474 672 0
-472 -473 672 0
473 611 -673 0
-473 -611 0
-473 673 0
474 586 673 -674 0
474 554 673 674 0
-474 -673 0
-474 -554 674 0
-474 -586 -674 0
375 -410 475 -476 -487 0
-375 -475 0
-475 487 0
-475 476 0
410 -475 0
393 -453 476 477 -478 0
453 -476 0
-476 -477 0
-393 -476 0
-476 478 0
394 477 706 0
-477 -706 0
-394 -477 0
23 478 479 -481 0
-293 478 479 -481 0
-478 481 0
-478 -479 0
-23 293 -478 0
206 479 -480 0
206 -382 479 -688 0
-206 -479 0
382 -479 480 0
-479 480 688 0
480 684 689 0
480 684 688 0
-480 -684 0
-480 -688 -689 0
481 -482 -483 -485 -486 0
-481 486 0
-481 482 0
-481 485 0
-481 483 0
-395 482 -706 0
-395 482 493 676 0
395 -482 0
-482 -676 706 0
-482 -493 706 0
396 483 -484 -492 675 0
-483 484 0
-396 -483 0
-483 492 0
-483 -675 0
484 -683 -684 0
-484 683 0
-484 684 0
485 705 -709 -712 -727 0
-485 -705 0
-485 727 0
-485 712 0
-485 709 0
486 -685 -686 -703 704 0
-486 703 0
-486 -704 0
-486 685 0
-486 686 0
389 454 487 -489 0
389 454 487 -488 0
-389 -487 0
-454 -487 0
-487 488 489 0
488 -688 -689 0
-488 688 0
-488 689 0
293 489 687 0
13 293 489 526 0
-293 -489 0
-13 -489 -687 0
-489 -526 -687 0
-207 386 490 0
-271 386 490 0
386 490 514 0
-386 -490 0
207 271 -490 -514 0
1 2 0
-1 -2 0
806 0

